letting n =  10
letting blocks =  [[1, 3], [1, 4], [1, 5], [1, 8], [2, 3], [2, 6], [3, 4], [3, 5], [3, 8], [3, 10], [4, 7], [4, 8], [5, 8], [6, 6], [6, 9], [7, 2], [7, 3], [7, 5], [7, 6], [8, 1], [8, 6], [9, 5], [9, 8], [9, 9], [10, 3], [10, 7]]
